4129008.0
997
0 1 4 6 8 15 18 20 21 22 25 28 31 32 35 43 47 50 54 55 56 59 63 68 69 71 76 79 80 81 84 85 86 87 88 94 96 99 102 110 111 112 114 115 117 118 119 120 125 126 127 128 133 134 139 141 148 154 156 160 164 165 168 170 171 173 178 180 181 182 185 187 190 191 192 193 194 195 197 